; benchmark generated from python API
(set-info :status unknown)
(declare-datatypes ((RealState 0)) (((RMk1 (rval1 Real)) (RMk2 (rval2 Real)))))
 (assert
 (exists ((|v11:0_st| RealState) (val!6604 Real) )(exists ((|v10:1_st| RealState) (val!6605 Real) )(exists ((|v9:2_st| RealState) (val!6606 Real) )(exists ((|v8:3_st| RealState) (val!6607 Real) )(forall ((|v7:4| Real) )(forall ((|v6:5| Real) )(forall ((|v5:6| Real) )(forall ((|v4:7| Real) )(exists ((|v3:8_st| RealState) (val!6608 Real) )(exists ((|v2:9_st| RealState) (val!6609 Real) )(exists ((|v1:10_st| RealState) (val!6610 Real) )(exists ((|v0:11_st| RealState) (val!6611 Real) )(let ((?x2387 (- 1.0)))
 (let ((?x3071 (rval2 |v8:3_st|)))
 (let ((?x346 (* 4.0 ?x3071)))
 (let ((?x220 (rval2 |v11:0_st|)))
 (let ((?x1567 (* 14.0 ?x220)))
 (let (($x1353 (<= (+ (+ (+ (* ?x2387 (rval2 |v9:2_st|)) (* 3.0 ?x220)) ?x1567) ?x346) ?x2387)))
 (let ((?x182 (+ (+ (+ (* 13.0 |v6:5|) (* (- 12.0) |v5:6|)) (* 16.0 (rval2 |v1:10_st|))) ?x1567)))
 (let ((?x1709 (- 16.0)))
 (let ((?x2682 (* ?x1709 |v6:5|)))
 (let ((?x2951 (+ (+ (* ?x2387 (rval2 |v10:1_st|)) (* 5.0 (rval2 |v2:9_st|))) (* (- 2.0) (rval2 |v9:2_st|)))))
 (let ((?x961 (- 2.0)))
 (let ((?x2142 (* 14.0 |v4:7|)))
 (let (($x1447 (<= (+ (+ (+ ?x346 (* 15.0 (rval2 |v9:2_st|))) (* 17.0 |v5:6|)) ?x2142) ?x961)))
 (let (($x3280 (and (and $x1447 (<= (+ ?x2951 ?x2682) 9.0)) (and (<= ?x182 ?x2387) $x1353))))
 (let ((?x2397 (rval2 |v3:8_st|)))
 (let ((?x1477 (- 5.0)))
 (let ((?x1912 (* ?x1477 ?x2397)))
 (let ((?x2202 (+ (+ (* (- 8.0) |v4:7|) (* 20.0 (rval2 |v9:2_st|))) (* 2.0 (rval2 |v1:10_st|)))))
 (let ((?x471 (+ (+ (* (- 8.0) (rval2 |v10:1_st|)) (* ?x2387 (rval2 |v1:10_st|))) (* (- 15.0) (rval2 |v9:2_st|)))))
 (let (($x2956 (and (<= (+ ?x471 (* 11.0 (rval2 |v1:10_st|))) 19.0) (<= (+ ?x2202 ?x1912) 0.0))))
 (let ((?x2461 (* 15.0 ?x2397)))
 (let (($x3355 (<= (+ (+ (+ (* ?x961 |v4:7|) (* 13.0 |v4:7|)) (* (- 20.0) ?x3071)) ?x2461) 7.0)))
 (let ((?x1863 (* 18.0 ?x3071)))
 (let ((?x1602 (+ (+ (* (- 9.0) ?x2397) (* (- 12.0) (rval2 |v1:10_st|))) (* 13.0 (rval2 |v1:10_st|)))))
 (let ((?x2334 (+ (+ (+ (* 18.0 |v6:5|) (* 9.0 (rval2 |v9:2_st|))) (* 13.0 |v4:7|)) (* (- 8.0) ?x220))))
 (let ((?x273 (rval2 |v2:9_st|)))
 (let ((?x913 (* 17.0 ?x273)))
 (let (($x3208 (<= (+ (+ (+ (* (- 20.0) ?x3071) (* ?x961 |v5:6|)) (* 12.0 ?x2397)) ?x913) 18.0)))
 (let ((?x2280 (* ?x1709 |v7:4|)))
 (let ((?x2764 (+ (+ (+ (* 5.0 (rval2 |v10:1_st|)) (* 0.0 (rval2 |v1:10_st|))) ?x2280) (* (- 10.0) (rval2 |v0:11_st|)))))
 (let ((?x2503 (- 3.0)))
 (let ((?x1588 (* 6.0 |v4:7|)))
 (let ((?x2250 (rval2 |v10:1_st|)))
 (let ((?x2749 (- 17.0)))
 (let ((?x32 (* ?x2749 ?x2250)))
 (let (($x49 (and (<= (+ (+ (+ (* (- 7.0) ?x2250) (* ?x2387 ?x2250)) ?x32) ?x1588) ?x2503) (<= ?x2764 ?x1477))))
 (let ((?x71 (- 9.0)))
 (let ((?x1470 (* ?x71 |v7:4|)))
 (let ((?x1322 (* 7.0 ?x2397)))
 (let ((?x3081 (+ (+ (+ (* 4.0 |v7:4|) (* 17.0 (rval2 |v9:2_st|))) (* 18.0 |v5:6|)) ?x1322)))
 (let (($x2942 (and (<= ?x3081 3.0) (<= (+ (+ (+ (* 0.0 ?x2250) (* 17.0 |v5:6|)) |v7:4|) ?x1470) ?x961))))
 (let ((?x472 (+ (+ (+ (* 4.0 ?x2397) (* ?x2749 ?x2397)) (* (- 20.0) (rval2 |v9:2_st|))) (* ?x1477 (rval2 |v1:10_st|)))))
 (let ((?x721 (rval2 |v0:11_st|)))
 (let ((?x2712 (* 0.0 ?x721)))
 (let ((?x1324 (+ (+ (+ (* 5.0 |v5:6|) (* ?x2387 |v4:7|)) (* ?x71 (rval2 |v9:2_st|))) ?x2712)))
 (let (($x64 (and (and (and (<= ?x1324 17.0) (<= ?x472 ?x1709)) $x2942) (and $x49 (and $x3208 (<= ?x2334 2.0))))))
 (let (($x2927 (and $x64 (and (and (and (<= (+ ?x1602 ?x1863) 15.0) $x3355) $x2956) $x3280))))
 (let ((?x2072 (- 14.0)))
 (let ((?x2812 (+ (+ (* 13.0 ?x220) (* (- 12.0) ?x721)) (* (- 4.0) (rval2 |v9:2_st|)))))
 (let ((?x1415 (- 15.0)))
 (let ((?x1934 (* 17.0 ?x2250)))
 (let ((?x3318 (+ (+ (+ (* 14.0 |v5:6|) (* (- 19.0) (rval2 |v1:10_st|))) (* 17.0 ?x3071)) ?x1934)))
 (let ((?x2348 (- 20.0)))
 (let ((?x3138 (rval2 |v1:10_st|)))
 (let ((?x358 (* ?x71 ?x3138)))
 (let ((?x1571 (+ (+ (+ (* (- 13.0) ?x2397) (* 18.0 ?x2250)) (* 3.0 (rval2 |v9:2_st|))) ?x358)))
 (let ((?x1319 (- 13.0)))
 (let ((?x2251 (+ (+ (+ (* 18.0 ?x2250) (* ?x2387 ?x220)) (* ?x2348 ?x2397)) (* ?x2348 ?x3138))))
 (let (($x22 (and (and (<= ?x2251 ?x1319) (<= ?x1571 ?x2348)) (and (<= ?x3318 ?x1415) (<= (+ ?x2812 (* (- 11.0) ?x273)) ?x2072)))))
 (let ((?x77 (* 2.0 ?x2397)))
 (let (($x2208 (<= (+ (+ (+ (* ?x961 ?x2397) (* 0.0 |v4:7|)) (* 7.0 |v6:5|)) ?x77) ?x2503)))
 (let ((?x2638 (* 14.0 ?x2397)))
 (let ((?x522 (+ (+ (+ (* 3.0 ?x220) (* 11.0 ?x273)) (* (- 19.0) ?x721)) ?x2638)))
 (let ((?x2946 (- 12.0)))
 (let ((?x1033 (+ (+ (+ (* (- 8.0) ?x2397) (* 3.0 |v5:6|)) (* ?x2072 ?x3071)) (* ?x961 ?x721))))
 (let ((?x2318 (* ?x1477 |v7:4|)))
 (let (($x464 (<= (+ (+ (+ (* 16.0 ?x3138) (* ?x2946 |v6:5|)) (* 3.0 ?x273)) ?x2318) 10.0)))
 (let (($x3473 (<= (+ (+ (+ (* 5.0 ?x2250) (* ?x2946 |v6:5|)) (* 11.0 ?x721)) ?x273) 8.0)))
 (let (($x2102 (<= (+ (+ (+ (* 7.0 |v4:7|) ?x1912) (* 2.0 ?x3071)) (* ?x2348 |v5:6|)) ?x1709)))
 (let ((?x2563 (* ?x2348 ?x2397)))
 (let (($x1659 (<= (+ (+ (+ (* 6.0 |v7:4|) (* ?x2946 ?x3138)) (* 10.0 ?x3138)) ?x2563) ?x1477)))
 (let ((?x2096 (- 10.0)))
 (let ((?x3413 (* ?x2096 |v5:6|)))
 (let (($x370 (<= (+ (+ (+ (* ?x2072 |v4:7|) (* 10.0 ?x3071)) (* 20.0 |v7:4|)) ?x3413) 8.0)))
 (let ((?x2995 (+ (+ (+ (* 4.0 |v7:4|) (* 10.0 ?x273)) (* 2.0 (rval2 |v9:2_st|))) (* 18.0 ?x273))))
 (let ((?x2871 (+ (+ (+ (* 19.0 ?x3138) (* ?x1415 ?x273)) (* ?x1477 ?x220)) (* 17.0 ?x721))))
 (let ((?x2760 (* 8.0 ?x721)))
 (let (($x110 (<= (+ (+ (+ (* 11.0 ?x2250) (* 10.0 |v7:4|)) (* 14.0 ?x3071)) ?x2760) ?x2348)))
 (let ((?x724 (* 0.0 |v5:6|)))
 (let ((?x1573 (* 7.0 ?x3138)))
 (let ((?x1678 (+ (+ (+ (* (- 7.0) (rval2 |v9:2_st|)) (* 0.0 (rval2 |v9:2_st|))) ?x1573) ?x724)))
 (let (($x880 (and (and (<= ?x1678 3.0) $x110) (and (<= ?x2871 ?x2096) (<= ?x2995 7.0)))))
 (let (($x1509 (and (and $x880 (and (and $x370 $x1659) (and $x2102 $x3473))) (and (or (and $x464 (<= ?x1033 ?x2946)) (and (<= ?x522 ?x2348) $x2208)) $x22))))
 (let ((?x564 (- 8.0)))
 (let ((?x704 (* ?x2946 |v5:6|)))
 (let ((?x3397 (+ (+ (+ (* 15.0 (rval2 |v9:2_st|)) (* 14.0 ?x3138)) (* ?x961 |v4:7|)) ?x704)))
 (let ((?x1774 (- 11.0)))
 (let ((?x1642 (- 18.0)))
 (let ((?x617 (* ?x1642 |v6:5|)))
 (let (($x3174 (<= (+ (+ (+ (* (- 6.0) ?x220) |v5:6|) (* 4.0 ?x3138)) ?x617) ?x1774)))
 (let ((?x599 (- 6.0)))
 (let (($x2163 (<= (+ (+ (+ (* ?x71 ?x2397) ?x1588) (* 9.0 |v7:4|)) (* 7.0 ?x273)) 9.0)))
 (let (($x2787 (and $x2163 (<= (+ (+ (+ ?x2280 ?x32) (* ?x2946 |v4:7|)) (* 0.0 |v4:7|)) ?x599))))
 (let ((?x792 (* ?x961 |v5:6|)))
 (let (($x3196 (<= (+ (+ (+ (* 2.0 |v5:6|) (* 17.0 ?x220)) (* ?x2946 ?x220)) ?x792) 19.0)))
 (let ((?x1357 (* ?x1477 ?x220)))
 (let (($x3034 (<= (+ (+ (+ (* ?x1642 ?x3138) (* (- 7.0) ?x3071)) (* 10.0 ?x3071)) ?x1357) 19.0)))
 (let (($x1505 (<= (+ (+ (+ (* ?x1642 ?x3071) (* 8.0 ?x3071)) (* 14.0 ?x3071)) ?x2142) 16.0)))
 (let ((?x2500 (+ (+ (+ (* 13.0 ?x2397) (* ?x599 |v5:6|)) (* ?x2503 |v4:7|)) (* (- 4.0) |v6:5|))))
 (let (($x1768 (and (and (and (<= ?x2500 2.0) $x1505) (and $x3034 $x3196)) (or $x2787 (and $x3174 (<= ?x3397 ?x564))))))
 (let (($x2962 (<= (+ (+ (+ (* ?x2072 ?x721) (* 12.0 |v5:6|)) ?x2712) (* 19.0 |v4:7|)) 0.0)))
 (let ((?x13 (* 11.0 |v5:6|)))
 (let (($x2694 (<= (+ (+ (+ (* 5.0 |v4:7|) (* 14.0 ?x3138)) (* ?x564 ?x721)) ?x13) 19.0)))
 (let ((?x1483 (* 16.0 |v4:7|)))
 (let (($x2529 (<= (+ (+ (+ (* (- 19.0) |v7:4|) ?x792) (* 13.0 |v5:6|)) ?x1483) 19.0)))
 (let (($x3047 (<= (+ (+ (+ ?x2638 (* ?x2749 |v6:5|)) (* ?x2387 ?x2397)) (* ?x1709 ?x721)) 5.0)))
 (let ((?x931 (+ (+ (+ (* 15.0 ?x3138) (* 12.0 ?x2397)) (* ?x2749 (rval2 |v9:2_st|))) (* 0.0 ?x3071))))
 (let ((?x2085 (+ (+ (+ (* ?x1642 ?x2250) (* 11.0 (rval2 |v9:2_st|))) (* ?x2749 |v6:5|)) ?x1322)))
 (let (($x1436 (<= (+ (+ (+ (* ?x71 ?x3071) ?x1470) (* 5.0 ?x273)) (* 14.0 ?x3138)) ?x2387)))
 (let (($x2058 (<= (+ (+ (+ ?x1863 (* ?x1709 ?x2250)) (* 20.0 |v5:6|)) (* ?x1642 |v7:4|)) 2.0)))
 (let (($x1929 (and (and (and $x2058 $x1436) (and (<= ?x2085 ?x2946) (<= ?x931 ?x599))) (and (and $x3047 $x2529) (and $x2694 $x2962)))))
 (let ((?x1595 (+ (+ (+ (* ?x2096 |v4:7|) (* 20.0 ?x273)) (* 16.0 |v7:4|)) (* ?x2749 ?x220))))
 (let ((?x3147 (rval2 |v9:2_st|)))
 (let ((?x2006 (* 4.0 ?x3147)))
 (let (($x3161 (<= (+ (+ (+ ?x913 (* (- 4.0) |v4:7|)) (* 7.0 |v4:7|)) ?x2006) ?x1709)))
 (let ((?x2912 (+ (+ (+ (* 20.0 |v7:4|) (* 20.0 ?x2250)) (* ?x2096 ?x2397)) (* (- 19.0) ?x220))))
 (let (($x2016 (<= (+ (+ (+ |v5:6| (* 12.0 ?x220)) (* ?x2946 ?x3071)) (* 13.0 ?x3071)) ?x1319)))
 (let (($x3503 (<= (+ (+ (+ ?x77 (* ?x1415 |v4:7|)) (* (- 4.0) ?x273)) (* 16.0 ?x3071)) ?x2096)))
 (let (($x1000 (and $x3503 (<= (+ (+ (+ ?x704 (* ?x1774 |v7:4|)) ?x358) (* 7.0 ?x273)) ?x2749))))
 (let ((?x1340 (* ?x564 |v6:5|)))
 (let (($x2834 (<= (+ (+ (+ (* 10.0 ?x3071) (* 7.0 ?x3147)) (* 0.0 ?x2250)) ?x1340) ?x2946)))
 (let ((?x3276 (* 17.0 |v4:7|)))
 (let (($x2763 (<= (+ (+ (+ (* ?x1774 ?x3071) (* (- 4.0) |v4:7|)) (* 14.0 |v7:4|)) ?x3276) 7.0)))
 (let (($x407 (and (and (and $x2763 $x2834) $x1000) (and (and $x2016 (<= ?x2912 11.0)) (and $x3161 (<= ?x1595 10.0))))))
 (let ((?x5 (* ?x1774 ?x3138)))
 (let (($x3167 (<= (+ (+ (+ (* 15.0 |v6:5|) (* ?x1709 ?x721)) (* 15.0 |v4:7|)) ?x5) ?x2749)))
 (let (($x2210 (and $x3167 (<= (+ (+ (+ ?x3413 (* 13.0 ?x721)) ?x1863) (* ?x1642 |v7:4|)) 20.0))))
 (let ((?x496 (- 19.0)))
 (let ((?x2282 (+ (+ (+ (* 10.0 ?x2397) (* 9.0 ?x2397)) (* 7.0 |v5:6|)) (* ?x599 |v6:5|))))
 (let (($x2659 (<= (+ (+ (+ (* 14.0 |v5:6|) (* 10.0 ?x2250)) ?x5) (* 20.0 |v6:5|)) ?x2096)))
 (let (($x800 (<= (+ (+ (+ ?x1357 (* 5.0 ?x721)) (* 5.0 ?x3071)) (* 16.0 ?x3071)) ?x2072)))
 (let ((?x264 (+ (+ (+ (* ?x496 |v6:5|) (* (- 4.0) ?x273)) (* 3.0 ?x2397)) (* 17.0 ?x3138))))
 (let ((?x3272 (* 15.0 |v4:7|)))
 (let (($x1215 (<= (+ (+ (+ (* 20.0 |v4:7|) (* 8.0 ?x3147)) (* 19.0 ?x3138)) ?x3272) 13.0)))
 (let ((?x1190 (* 20.0 |v5:6|)))
 (let (($x3251 (<= (+ (+ (+ (* 12.0 ?x273) (* ?x2096 ?x3138)) (* ?x2503 |v4:7|)) ?x1190) 6.0)))
 (let (($x506 (and (and (or $x3251 $x1215) (and (<= ?x264 ?x2348) $x800)) (or (or $x2659 (<= ?x2282 ?x496)) $x2210))))
 (let (($x1161 (not (= |v0:11_st| (RMk1 val!6611)))))
 (let (($x1272 (not (= |v1:10_st| (RMk1 val!6610)))))
 (let (($x1346 (not (= |v2:9_st| (RMk1 val!6609)))))
 (let (($x2005 (not (= |v3:8_st| (RMk1 val!6608)))))
 (let (($x1367 (not (= |v8:3_st| (RMk1 val!6607)))))
 (let (($x3058 (not (= |v9:2_st| (RMk1 val!6606)))))
 (let (($x1294 (not (= |v10:1_st| (RMk1 val!6605)))))
 (let (($x2915 (not (= |v11:0_st| (RMk1 val!6604)))))
 (and $x2915 $x1294 $x3058 $x1367 $x2005 $x1346 $x1272 $x1161 (and (and (and $x506 $x407) (and $x1929 $x1768)) (and $x1509 $x2927)))))))))))))))))))))))))))))))))))))))))))))))))))))))))))))))))))))))))))))))))))))))))))))))))))))))))))))))))))))))))))))))))))))))))))))))))))))
 )
 )
 )
 )
 )
 )
 )
 )
 )
 )
 )
 )
(check-sat)
